results_rootrelaxation/bin012_060_009.srr.sol
solution status: optimal solution found
objective value:                      1.9406779661017
_var71_                             0.406779661016949 	(obj:0)
_var703_                            0.161016949152541 	(obj:1)
_var707_                           0.0169491525423728 	(obj:0)
_var710_                            0.491525423728814 	(obj:0)
_var712_                            0.042372881355932 	(obj:1)
_var718_                            0.271186440677966 	(obj:0)
_var719_                            0.127118644067796 	(obj:0)
_var728_                            0.135593220338983 	(obj:0)
_var737_                           0.0169491525423726 	(obj:0)
_var741_                             0.28813559322034 	(obj:0)
_var758_                           0.0169491525423731 	(obj:1)
_var761_                            0.593220338983051 	(obj:0)
_var764_                            0.220338983050848 	(obj:0)
_var765_                            0.372881355932203 	(obj:0)
_var781_                            0.110169491525425 	(obj:0)
_var788_                            0.220338983050847 	(obj:1)
_var789_                            0.127118644067797 	(obj:1)
_var790_                            0.220338983050847 	(obj:0)
_var791_                           0.0847457627118642 	(obj:0)
_var796_                            0.135593220338983 	(obj:0)
_var799_                            0.406779661016949 	(obj:0)
_var801_                            0.211864406779662 	(obj:0)
_var811_                            0.194915254237288 	(obj:0)
_var814_                            0.161016949152541 	(obj:0)
_var817_                           0.0593220338983051 	(obj:1)
_var826_                            0.169491525423729 	(obj:1)
_var830_                            0.254237288135593 	(obj:0)
_var835_                          0.00847457627118514 	(obj:0)
_var837_                            0.432203389830508 	(obj:0)
_var841_                             0.11864406779661 	(obj:0)
_var846_                            0.110169491525425 	(obj:1)
_var849_                            0.152542372881356 	(obj:0)
_var850_                            0.567796610169491 	(obj:0)
_var854_                          0.00847457627118664 	(obj:1)
_var860_                           0.0593220338983053 	(obj:0)
_var863_                            0.050847457627119 	(obj:1)
_var864_                             0.11864406779661 	(obj:1)
_var865_                            0.101694915254238 	(obj:0)
_var868_                             0.11864406779661 	(obj:0)
_var870_                           0.0593220338983051 	(obj:0)
_var873_                           0.0847457627118647 	(obj:0)
_var875_                             0.47457627118644 	(obj:0)
_var876_                           0.0423728813559313 	(obj:0)
_var878_                           0.0932203389830508 	(obj:0)
_var879_                            0.254237288135593 	(obj:1)
_var881_                           0.0847457627118649 	(obj:0)
_var882_                            0.220338983050847 	(obj:0)
_var885_                            0.245762711864407 	(obj:1)
_var887_                            0.101694915254237 	(obj:0)
_var890_                            0.135593220338984 	(obj:0)
_var891_                            0.118644067796611 	(obj:0)
_var896_                            0.288135593220339 	(obj:0)
_var897_                            0.025423728813559 	(obj:0)
_var899_                           0.0169491525423721 	(obj:0)
_var901_                           0.0593220338983051 	(obj:1)
_var902_                            0.423728813559322 	(obj:0)
_var903_                          0.00847457627118714 	(obj:1)
_var904_                            0.110169491525425 	(obj:0)
_var905_                          0.00847457627118631 	(obj:1)
_var907_                            0.279661016949152 	(obj:1)
_var908_                            0.101694915254236 	(obj:0)
_var910_                           0.0423728813559338 	(obj:0)
_var911_                            0.262711864406781 	(obj:0)
_var915_                           0.0932203389830516 	(obj:0)
