results_rootrelaxation/bin012_060_009.srr.log
SCIP version 8.0.3.5 [precision: 8 byte] [memory: block] [mode: optimized] [LP solver: Soplex 6.0.1.3] [GitHash: 438792519e]
Copyright (c) 2002-2023 Zuse Institute Berlin (ZIB)

External libraries: 
  Readline 8.1         GNU library for command line editing (gnu.org/s/readline)
  Soplex 6.0.1.3       Linear Programming Solver developed at Zuse Institute Berlin (soplex.zib.de) [GitHash: 713be0fe]
  CppAD 20180000.0     Algorithmic Differentiation of C++ algorithms developed by B. Bell (github.com/coin-or/CppAD)
  ZLIB 1.2.11          General purpose compression library by J. Gailly and M. Adler (zlib.net)
  bliss 0.77           Computing Graph Automorphism Groups by T. Junttila and P. Kaski (www.tcs.hut.fi/Software/bliss/)

user parameter file <scip.set> not found - using default parameters

srr/relaxation = TRUE

read problem <instances/bin012_060_009.srr>
============

Original problem: 
original problem has 0 variables (0 bin, 0 int, 0 impl, 0 cont) and 77 constraints

presolving:
presolving (1 rounds: 1 fast, 1 medium, 1 exhaustive):
 0 deleted vars, 0 deleted constraints, 0 added constraints, 0 tightened bounds, 0 added holes, 0 changed sides, 0 changed coefficients
 0 implications, 0 cliques
presolved problem has 0 variables (0 bin, 0 int, 0 impl, 0 cont) and 77 constraints
     77 constraints of type <linear>
Presolving Time: 0.00

 time | node  | left  |LP iter|LP it/n|mem/heur|mdpt |vars |cons |rows |cuts |sepa|confs|strbr|  dualbound   | primalbound  |  gap   | compl. 
  0.0s|     1 |     0 |     1 |     - |   710k |   0 |   1 |  77 |  77 |   0 |  0 |   0 |   0 |      --      |      --      |    Inf | unknown
r 0.1s|     1 |     0 |  1059 |     - |simplero|   0 | 677 |  77 |  77 |   0 |  0 |   0 |   0 |      --      | 1.993545e+01 |    Inf | unknown
r 0.1s|     1 |     0 |  1082 |     - |simplero|   0 | 688 |  77 |  77 |   0 |  0 |   0 |   0 |      --      | 1.919497e+01 |    Inf | unknown
r 0.1s|     1 |     0 |  1120 |     - |simplero|   0 | 699 |  77 |  77 |   0 |  0 |   0 |   0 |      --      | 1.810280e+01 |    Inf | unknown
r 0.1s|     1 |     0 |  1202 |     - |simplero|   0 | 710 |  77 |  77 |   0 |  0 |   0 |   0 |      --      | 1.592260e+01 |    Inf | unknown
r 0.1s|     1 |     0 |  1267 |     - |simplero|   0 | 721 |  77 |  77 |   0 |  0 |   0 |   0 |      --      | 1.335248e+01 |    Inf | unknown
r 0.1s|     1 |     0 |  1317 |     - |simplero|   0 | 732 |  77 |  77 |   0 |  0 |   0 |   0 |      --      | 1.209726e+01 |    Inf | unknown
r 0.1s|     1 |     0 |  1399 |     - |simplero|   0 | 743 |  77 |  77 |   0 |  0 |   0 |   0 |      --      | 8.312240e+00 |    Inf | unknown
r 0.1s|     1 |     0 |  1432 |     - |simplero|   0 | 754 |  77 |  77 |   0 |  0 |   0 |   0 |      --      | 7.152233e+00 |    Inf | unknown
r 0.1s|     1 |     0 |  1454 |     - |simplero|   0 | 754 |  77 |  77 |   0 |  0 |   0 |   0 |      --      | 6.915695e+00 |    Inf | unknown
r 0.1s|     1 |     0 |  1460 |     - |simplero|   0 | 754 |  77 |  77 |   0 |  0 |   0 |   0 |      --      | 6.913032e+00 |    Inf | unknown
r 0.1s|     1 |     0 |  1515 |     - |simplero|   0 | 765 |  77 |  77 |   0 |  0 |   0 |   0 |      --      | 5.871135e+00 |    Inf | unknown
r 0.1s|     1 |     0 |  1519 |     - |simplero|   0 | 765 |  77 |  77 |   0 |  0 |   0 |   0 |      --      | 5.868184e+00 |    Inf | unknown
r 0.1s|     1 |     0 |  1545 |     - |simplero|   0 | 776 |  77 |  77 |   0 |  0 |   0 |   0 |      --      | 5.423389e+00 |    Inf | unknown
r 0.1s|     1 |     0 |  1550 |     - |simplero|   0 | 776 |  77 |  77 |   0 |  0 |   0 |   0 |      --      | 5.385848e+00 |    Inf | unknown
 time | node  | left  |LP iter|LP it/n|mem/heur|mdpt |vars |cons |rows |cuts |sepa|confs|strbr|  dualbound   | primalbound  |  gap   | compl. 
r 0.1s|     1 |     0 |  1555 |     - |simplero|   0 | 776 |  77 |  77 |   0 |  0 |   0 |   0 |      --      | 5.371852e+00 |    Inf | unknown
r 0.1s|     1 |     0 |  1561 |     - |simplero|   0 | 776 |  77 |  77 |   0 |  0 |   0 |   0 |      --      | 5.368999e+00 |    Inf | unknown
r 0.1s|     1 |     0 |  1588 |     - |simplero|   0 | 787 |  77 |  77 |   0 |  0 |   0 |   0 |      --      | 5.000896e+00 |    Inf | unknown
r 0.1s|     1 |     0 |  1595 |     - |simplero|   0 | 787 |  77 |  77 |   0 |  0 |   0 |   0 |      --      | 4.955859e+00 |    Inf | unknown
r 0.1s|     1 |     0 |  1626 |     - |simplero|   0 | 798 |  77 |  77 |   0 |  0 |   0 |   0 |      --      | 4.491154e+00 |    Inf | unknown
r 0.1s|     1 |     0 |  1633 |     - |simplero|   0 | 798 |  77 |  77 |   0 |  0 |   0 |   0 |      --      | 4.431774e+00 |    Inf | unknown
r 0.1s|     1 |     0 |  1639 |     - |simplero|   0 | 798 |  77 |  77 |   0 |  0 |   0 |   0 |      --      | 4.414036e+00 |    Inf | unknown
r 0.1s|     1 |     0 |  1664 |     - |simplero|   0 | 809 |  77 |  77 |   0 |  0 |   0 |   0 |      --      | 4.062261e+00 |    Inf | unknown
r 0.1s|     1 |     0 |  1676 |     - |simplero|   0 | 809 |  77 |  77 |   0 |  0 |   0 |   0 |      --      | 3.963239e+00 |    Inf | unknown
r 0.1s|     1 |     0 |  1708 |     - |simplero|   0 | 820 |  77 |  77 |   0 |  0 |   0 |   0 |      --      | 3.473971e+00 |    Inf | unknown
r 0.1s|     1 |     0 |  1729 |     - |simplero|   0 | 820 |  77 |  77 |   0 |  0 |   0 |   0 |      --      | 3.408746e+00 |    Inf | unknown
r 0.1s|     1 |     0 |  1770 |     - |simplero|   0 | 831 |  77 |  77 |   0 |  0 |   0 |   0 |      --      | 3.110190e+00 |    Inf | unknown
r 0.1s|     1 |     0 |  1786 |     - |simplero|   0 | 831 |  77 |  77 |   0 |  0 |   0 |   0 |      --      | 2.983187e+00 |    Inf | unknown
r 0.1s|     1 |     0 |  1822 |     - |simplero|   0 | 842 |  77 |  77 |   0 |  0 |   0 |   0 |      --      | 2.747773e+00 |    Inf | unknown
r 0.1s|     1 |     0 |  1830 |     - |simplero|   0 | 842 |  77 |  77 |   0 |  0 |   0 |   0 |      --      | 2.736943e+00 |    Inf | unknown
 time | node  | left  |LP iter|LP it/n|mem/heur|mdpt |vars |cons |rows |cuts |sepa|confs|strbr|  dualbound   | primalbound  |  gap   | compl. 
r 0.1s|     1 |     0 |  1857 |     - |simplero|   0 | 853 |  77 |  77 |   0 |  0 |   0 |   0 |      --      | 2.442301e+00 |    Inf | unknown
r 0.1s|     1 |     0 |  1858 |     - |simplero|   0 | 853 |  77 |  77 |   0 |  0 |   0 |   0 |      --      | 2.442258e+00 |    Inf | unknown
r 0.1s|     1 |     0 |  1875 |     - |simplero|   0 | 863 |  77 |  77 |   0 |  0 |   0 |   0 |      --      | 2.404043e+00 |    Inf | unknown
r 0.1s|     1 |     0 |  1879 |     - |simplero|   0 | 863 |  77 |  77 |   0 |  0 |   0 |   0 |      --      | 2.392221e+00 |    Inf | unknown
  0.1s|     1 |     0 |  1880 |     - |  4159k |   0 | 863 |  77 |  77 |   0 |  0 |   0 |   0 |      --      | 2.392221e+00 |    Inf | unknown
r 0.1s|     1 |     0 |  1880 |     - |simplero|   0 | 863 |  77 |  77 |   0 |  0 |   0 |   0 |      --      | 2.391881e+00 |    Inf | unknown
r 0.1s|     1 |     0 |  1896 |     - |simplero|   0 | 873 |  77 |  77 |   0 |  0 |   0 |   0 |      --      | 2.319372e+00 |    Inf | unknown
r 0.1s|     1 |     0 |  1905 |     - |simplero|   0 | 873 |  77 |  77 |   0 |  0 |   0 |   0 |      --      | 2.294633e+00 |    Inf | unknown
r 0.1s|     1 |     0 |  1928 |     - |simplero|   0 | 884 |  77 |  77 |   0 |  0 |   0 |   0 |      --      | 2.184028e+00 |    Inf | unknown
r 0.1s|     1 |     0 |  1946 |     - |simplero|   0 | 893 |  77 |  77 |   0 |  0 |   0 |   0 |      --      | 2.067731e+00 |    Inf | unknown
r 0.1s|     1 |     0 |  1958 |     - |simplero|   0 | 893 |  77 |  77 |   0 |  0 |   0 |   0 |      --      | 2.045394e+00 |    Inf | unknown
r 0.1s|     1 |     0 |  1965 |     - |simplero|   0 | 893 |  77 |  77 |   0 |  0 |   0 |   0 |      --      | 2.039474e+00 |    Inf | unknown
r 0.1s|     1 |     0 |  1985 |     - |simplero|   0 | 901 |  77 |  77 |   0 |  0 |   0 |   0 |      --      | 2.000513e+00 |    Inf | unknown
r 0.1s|     1 |     0 |  2005 |     - |simplero|   0 | 907 |  77 |  77 |   0 |  0 |   0 |   0 |      --      | 1.972222e+00 |    Inf | unknown
r 0.1s|     1 |     0 |  2015 |     - |simplero|   0 | 909 |  77 |  77 |   0 |  0 |   0 |   0 |      --      | 1.964314e+00 |    Inf | unknown
 time | node  | left  |LP iter|LP it/n|mem/heur|mdpt |vars |cons |rows |cuts |sepa|confs|strbr|  dualbound   | primalbound  |  gap   | compl. 
r 0.1s|     1 |     0 |  2031 |     - |simplero|   0 | 913 |  77 |  77 |   0 |  0 |   0 |   0 |      --      | 1.945107e+00 |    Inf | unknown
r 0.1s|     1 |     0 |  2033 |     - |simplero|   0 | 913 |  77 |  77 |   0 |  0 |   0 |   0 |      --      | 1.945069e+00 |    Inf | unknown
r 0.1s|     1 |     0 |  2039 |     - |simplero|   0 | 916 |  77 |  77 |   0 |  0 |   0 |   0 |      --      | 1.940678e+00 |    Inf | unknown
  0.1s|     1 |     0 |  2039 |     - |  4599k |   0 | 916 |  77 |  77 |   0 |  0 |   0 |   0 | 1.940678e+00 | 1.940678e+00 |   0.00%| unknown
  0.1s|     1 |     0 |  2039 |     - |  4599k |   0 | 916 |  77 |  77 |   0 |  0 |   0 |   0 | 1.940678e+00 | 1.940678e+00 |   0.00%| unknown

SCIP Status        : problem is solved [optimal solution found]
Solving Time (sec) : 0.12
Solving Nodes      : 1
Primal Bound       : +1.94067796610170e+00 (46 solutions)
Dual Bound         : +1.94067796610170e+00
Gap                : 0.00 %

written transformed problem to file <results_rootrelaxation/bin012_060_009.srr.lp>
written transformed problem to file <results_rootrelaxation/bin012_060_009.srr.cip>


SCIP version 8.0.3.5 [precision: 8 byte] [memory: block] [mode: optimized] [LP solver: Soplex 6.0.1.3] [GitHash: 438792519e]
Copyright (c) 2002-2023 Zuse Institute Berlin (ZIB)

External libraries: 
  Readline 8.1         GNU library for command line editing (gnu.org/s/readline)
  Soplex 6.0.1.3       Linear Programming Solver developed at Zuse Institute Berlin (soplex.zib.de) [GitHash: 713be0fe]
  CppAD 20180000.0     Algorithmic Differentiation of C++ algorithms developed by B. Bell (github.com/coin-or/CppAD)
  ZLIB 1.2.11          General purpose compression library by J. Gailly and M. Adler (zlib.net)
  bliss 0.77           Computing Graph Automorphism Groups by T. Junttila and P. Kaski (www.tcs.hut.fi/Software/bliss/)

user parameter file <scip.set> not found - using default parameters

srr/relaxation = TRUE

read problem <instances/bin012_060_009.srr>
============

Original problem: 
original problem has 0 variables (0 bin, 0 int, 0 impl, 0 cont) and 77 constraints

presolving:
presolving (1 rounds: 1 fast, 1 medium, 1 exhaustive):
 0 deleted vars, 0 deleted constraints, 0 added constraints, 0 tightened bounds, 0 added holes, 0 changed sides, 0 changed coefficients
 0 implications, 0 cliques
presolved problem has 0 variables (0 bin, 0 int, 0 impl, 0 cont) and 77 constraints
     77 constraints of type <linear>
Presolving Time: 0.00

 time | node  | left  |LP iter|LP it/n|mem/heur|mdpt |vars |cons |rows |cuts |sepa|confs|strbr|  dualbound   | primalbound  |  gap   | compl. 
  0.0s|     1 |     0 |     1 |     - |   710k |   0 |   1 |  77 |  77 |   0 |  0 |   0 |   0 |      --      |      --      |    Inf | unknown
r 0.1s|     1 |     0 |  1059 |     - |simplero|   0 | 677 |  77 |  77 |   0 |  0 |   0 |   0 |      --      | 1.993545e+01 |    Inf | unknown
r 0.1s|     1 |     0 |  1082 |     - |simplero|   0 | 688 |  77 |  77 |   0 |  0 |   0 |   0 |      --      | 1.919497e+01 |    Inf | unknown
r 0.1s|     1 |     0 |  1120 |     - |simplero|   0 | 699 |  77 |  77 |   0 |  0 |   0 |   0 |      --      | 1.810280e+01 |    Inf | unknown
r 0.1s|     1 |     0 |  1202 |     - |simplero|   0 | 710 |  77 |  77 |   0 |  0 |   0 |   0 |      --      | 1.592260e+01 |    Inf | unknown
r 0.1s|     1 |     0 |  1267 |     - |simplero|   0 | 721 |  77 |  77 |   0 |  0 |   0 |   0 |      --      | 1.335248e+01 |    Inf | unknown
r 0.1s|     1 |     0 |  1317 |     - |simplero|   0 | 732 |  77 |  77 |   0 |  0 |   0 |   0 |      --      | 1.209726e+01 |    Inf | unknown
r 0.1s|     1 |     0 |  1399 |     - |simplero|   0 | 743 |  77 |  77 |   0 |  0 |   0 |   0 |      --      | 8.312240e+00 |    Inf | unknown
r 0.1s|     1 |     0 |  1432 |     - |simplero|   0 | 754 |  77 |  77 |   0 |  0 |   0 |   0 |      --      | 7.152233e+00 |    Inf | unknown
r 0.1s|     1 |     0 |  1454 |     - |simplero|   0 | 754 |  77 |  77 |   0 |  0 |   0 |   0 |      --      | 6.915695e+00 |    Inf | unknown
r 0.1s|     1 |     0 |  1460 |     - |simplero|   0 | 754 |  77 |  77 |   0 |  0 |   0 |   0 |      --      | 6.913032e+00 |    Inf | unknown
r 0.1s|     1 |     0 |  1515 |     - |simplero|   0 | 765 |  77 |  77 |   0 |  0 |   0 |   0 |      --      | 5.871135e+00 |    Inf | unknown
r 0.1s|     1 |     0 |  1519 |     - |simplero|   0 | 765 |  77 |  77 |   0 |  0 |   0 |   0 |      --      | 5.868184e+00 |    Inf | unknown
r 0.1s|     1 |     0 |  1545 |     - |simplero|   0 | 776 |  77 |  77 |   0 |  0 |   0 |   0 |      --      | 5.423389e+00 |    Inf | unknown
r 0.1s|     1 |     0 |  1550 |     - |simplero|   0 | 776 |  77 |  77 |   0 |  0 |   0 |   0 |      --      | 5.385848e+00 |    Inf | unknown
 time | node  | left  |LP iter|LP it/n|mem/heur|mdpt |vars |cons |rows |cuts |sepa|confs|strbr|  dualbound   | primalbound  |  gap   | compl. 
r 0.1s|     1 |     0 |  1555 |     - |simplero|   0 | 776 |  77 |  77 |   0 |  0 |   0 |   0 |      --      | 5.371852e+00 |    Inf | unknown
r 0.1s|     1 |     0 |  1561 |     - |simplero|   0 | 776 |  77 |  77 |   0 |  0 |   0 |   0 |      --      | 5.368999e+00 |    Inf | unknown
r 0.1s|     1 |     0 |  1588 |     - |simplero|   0 | 787 |  77 |  77 |   0 |  0 |   0 |   0 |      --      | 5.000896e+00 |    Inf | unknown
r 0.1s|     1 |     0 |  1595 |     - |simplero|   0 | 787 |  77 |  77 |   0 |  0 |   0 |   0 |      --      | 4.955859e+00 |    Inf | unknown
r 0.1s|     1 |     0 |  1626 |     - |simplero|   0 | 798 |  77 |  77 |   0 |  0 |   0 |   0 |      --      | 4.491154e+00 |    Inf | unknown
r 0.1s|     1 |     0 |  1633 |     - |simplero|   0 | 798 |  77 |  77 |   0 |  0 |   0 |   0 |      --      | 4.431774e+00 |    Inf | unknown
r 0.1s|     1 |     0 |  1639 |     - |simplero|   0 | 798 |  77 |  77 |   0 |  0 |   0 |   0 |      --      | 4.414036e+00 |    Inf | unknown
r 0.1s|     1 |     0 |  1664 |     - |simplero|   0 | 809 |  77 |  77 |   0 |  0 |   0 |   0 |      --      | 4.062261e+00 |    Inf | unknown
r 0.1s|     1 |     0 |  1676 |     - |simplero|   0 | 809 |  77 |  77 |   0 |  0 |   0 |   0 |      --      | 3.963239e+00 |    Inf | unknown
r 0.1s|     1 |     0 |  1708 |     - |simplero|   0 | 820 |  77 |  77 |   0 |  0 |   0 |   0 |      --      | 3.473971e+00 |    Inf | unknown
r 0.1s|     1 |     0 |  1729 |     - |simplero|   0 | 820 |  77 |  77 |   0 |  0 |   0 |   0 |      --      | 3.408746e+00 |    Inf | unknown
r 0.1s|     1 |     0 |  1770 |     - |simplero|   0 | 831 |  77 |  77 |   0 |  0 |   0 |   0 |      --      | 3.110190e+00 |    Inf | unknown
r 0.1s|     1 |     0 |  1786 |     - |simplero|   0 | 831 |  77 |  77 |   0 |  0 |   0 |   0 |      --      | 2.983187e+00 |    Inf | unknown
r 0.1s|     1 |     0 |  1822 |     - |simplero|   0 | 842 |  77 |  77 |   0 |  0 |   0 |   0 |      --      | 2.747773e+00 |    Inf | unknown
r 0.1s|     1 |     0 |  1830 |     - |simplero|   0 | 842 |  77 |  77 |   0 |  0 |   0 |   0 |      --      | 2.736943e+00 |    Inf | unknown
 time | node  | left  |LP iter|LP it/n|mem/heur|mdpt |vars |cons |rows |cuts |sepa|confs|strbr|  dualbound   | primalbound  |  gap   | compl. 
r 0.1s|     1 |     0 |  1857 |     - |simplero|   0 | 853 |  77 |  77 |   0 |  0 |   0 |   0 |      --      | 2.442301e+00 |    Inf | unknown
r 0.1s|     1 |     0 |  1858 |     - |simplero|   0 | 853 |  77 |  77 |   0 |  0 |   0 |   0 |      --      | 2.442258e+00 |    Inf | unknown
r 0.1s|     1 |     0 |  1875 |     - |simplero|   0 | 863 |  77 |  77 |   0 |  0 |   0 |   0 |      --      | 2.404043e+00 |    Inf | unknown
r 0.1s|     1 |     0 |  1879 |     - |simplero|   0 | 863 |  77 |  77 |   0 |  0 |   0 |   0 |      --      | 2.392221e+00 |    Inf | unknown
  0.1s|     1 |     0 |  1880 |     - |  4159k |   0 | 863 |  77 |  77 |   0 |  0 |   0 |   0 |      --      | 2.392221e+00 |    Inf | unknown
r 0.1s|     1 |     0 |  1880 |     - |simplero|   0 | 863 |  77 |  77 |   0 |  0 |   0 |   0 |      --      | 2.391881e+00 |    Inf | unknown
r 0.1s|     1 |     0 |  1896 |     - |simplero|   0 | 873 |  77 |  77 |   0 |  0 |   0 |   0 |      --      | 2.319372e+00 |    Inf | unknown
r 0.1s|     1 |     0 |  1905 |     - |simplero|   0 | 873 |  77 |  77 |   0 |  0 |   0 |   0 |      --      | 2.294633e+00 |    Inf | unknown
r 0.1s|     1 |     0 |  1928 |     - |simplero|   0 | 884 |  77 |  77 |   0 |  0 |   0 |   0 |      --      | 2.184028e+00 |    Inf | unknown
r 0.1s|     1 |     0 |  1946 |     - |simplero|   0 | 893 |  77 |  77 |   0 |  0 |   0 |   0 |      --      | 2.067731e+00 |    Inf | unknown
r 0.1s|     1 |     0 |  1958 |     - |simplero|   0 | 893 |  77 |  77 |   0 |  0 |   0 |   0 |      --      | 2.045394e+00 |    Inf | unknown
r 0.1s|     1 |     0 |  1965 |     - |simplero|   0 | 893 |  77 |  77 |   0 |  0 |   0 |   0 |      --      | 2.039474e+00 |    Inf | unknown
r 0.1s|     1 |     0 |  1985 |     - |simplero|   0 | 901 |  77 |  77 |   0 |  0 |   0 |   0 |      --      | 2.000513e+00 |    Inf | unknown
r 0.1s|     1 |     0 |  2005 |     - |simplero|   0 | 907 |  77 |  77 |   0 |  0 |   0 |   0 |      --      | 1.972222e+00 |    Inf | unknown
r 0.1s|     1 |     0 |  2015 |     - |simplero|   0 | 909 |  77 |  77 |   0 |  0 |   0 |   0 |      --      | 1.964314e+00 |    Inf | unknown
 time | node  | left  |LP iter|LP it/n|mem/heur|mdpt |vars |cons |rows |cuts |sepa|confs|strbr|  dualbound   | primalbound  |  gap   | compl. 
r 0.1s|     1 |     0 |  2031 |     - |simplero|   0 | 913 |  77 |  77 |   0 |  0 |   0 |   0 |      --      | 1.945107e+00 |    Inf | unknown
r 0.1s|     1 |     0 |  2033 |     - |simplero|   0 | 913 |  77 |  77 |   0 |  0 |   0 |   0 |      --      | 1.945069e+00 |    Inf | unknown
r 0.1s|     1 |     0 |  2039 |     - |simplero|   0 | 916 |  77 |  77 |   0 |  0 |   0 |   0 |      --      | 1.940678e+00 |    Inf | unknown
  0.1s|     1 |     0 |  2039 |     - |  4599k |   0 | 916 |  77 |  77 |   0 |  0 |   0 |   0 | 1.940678e+00 | 1.940678e+00 |   0.00%| unknown
  0.1s|     1 |     0 |  2039 |     - |  4599k |   0 | 916 |  77 |  77 |   0 |  0 |   0 |   0 | 1.940678e+00 | 1.940678e+00 |   0.00%| unknown

SCIP Status        : problem is solved [optimal solution found]
Solving Time (sec) : 0.11
Solving Nodes      : 1
Primal Bound       : +1.94067796610170e+00 (46 solutions)
Dual Bound         : +1.94067796610170e+00
Gap                : 0.00 %

written transformed problem to file <results_rootrelaxation/bin012_060_009.srr.lp>
written transformed problem to file <results_rootrelaxation/bin012_060_009.srr.cip>

written solution information to file <results_rootrelaxation/bin012_060_009.srr.sol>



